Route 1: 0 10 47 27 97 82 28 69 25 41 98 58 92 0
Route 2: 0 99 68 95 56 13 20 83 11 0
Route 3: 0 5 7 60 33 51 45 43 39 0
Route 4: 0 59 30 44 16 19 89 32 24 62 64 57 0
Route 5: 0 14 55 85 40 1 49 0
Route 6: 0 9 4 91 90 88 31 48 38 22 0
Route 7: 0 37 70 94 77 63 6 18 65 66 0
Route 8: 0 3 54 79 76 52 61 72 0
Route 9: 0 23 78 36 71 73 75 53 46 0
Route 10: 0 84 26 21 2 35 15 67 81 87 29 0
Route 11: 0 74 86 8 100 96 80 0
Route 12: 0 34 17 50 12 42 93 0
